s td 33 7 40
b 1 4 21
b 2 7 10 27
b 3 9 36 37
b 4 13 39
b 5 16 35
b 6 29 36
b 7 31 32
b 8 1 10 21
b 9 8 37 40
b 10 20 34 35
b 11 15 22 34
b 12 15 34 35
b 13 15 32 34
b 14 6 28 40
b 15 18 25 30
b 16 26 32 34 40
b 17 18 23 24 39
b 18 3 5 33 36 40
b 19 3 6 26 32 33 36 40
b 20 3 6 18 26 32 33 36
b 21 3 6 18 21 26 33 36
b 22 6 17 18 21 26 33 36
b 23 6 10 17 18 21 26 36
b 24 6 10 17 18 25 26
b 25 10 17 25 26 38
b 26 17 19 21 33
b 27 3 18 21 24 26 36
b 28 18 21 23 24 36
b 29 3 6 32 33 36 37 40
b 30 3 11 33 37 40
b 31 2
b 32 12
b 33 14
1 21
1 31
1 32
1 33
2 23
3 29
4 17
5 12
6 18
7 19
8 23
9 29
10 12
11 13
12 13
13 16
14 19
15 24
16 19
17 28
18 19
19 20
19 29
20 21
21 22
21 27
22 23
22 26
23 24
24 25
27 28
29 30
